c Grid graph 3x10
p edge 30 47
e 1 2
e 1 11
e 2 3
e 2 12
e 3 4
e 3 13
e 4 5
e 4 14
e 5 6
e 5 15
e 6 7
e 6 16
e 7 8
e 7 17
e 8 9
e 8 18
e 9 10
e 9 19
e 10 20
e 11 12
e 11 21
e 12 13
e 12 22
e 13 14
e 13 23
e 14 15
e 14 24
e 15 16
e 15 25
e 16 17
e 16 26
e 17 18
e 17 27
e 18 19
e 18 28
e 19 20
e 19 29
e 20 30
e 21 22
e 22 23
e 23 24
e 24 25
e 25 26
e 26 27
e 27 28
e 28 29
e 29 30
